14810.0
1 0 1 0 0 1 1 1 1 0 0 1 0 1 1 0 0 1 0 0 1 0 1 0 1 1 0 1 0 1 
20 11 13 2 20 5 2 24 14 17 22 8 8 20 17 14 14 17 5 11 2 0 5 17 5 8 2 24 5 24 5 25 6 25 20 20 24 24 0 14 0 14 24 8 24 14 7 13 27 8 29 14 14 5 13 20 17 11 0 14 0 5 20 11 11 11 22 0 22 22 20 6 11 17 24 8 22 20 14 24 20 7 20 17 17 17 17 7 20 5 2 24 17 11 17 24 2 2 25 13 8 17 17 25 2 29 17 11 14 8 14 14 2 11 11 27 24 24 24 24 5 8 25 13 8 0 5 24 0 29 0 11 24 5 8 14 17 5 20 17 0 8 20 14 8 25 25 5 2 5 